(declare-fun var0 () String)
(assert (RegexIn var0 (RegexConcat (RegexPlus (RegexStar (RegexPlus (RegexStar (RegexPlus (RegexUnion (RegexPlus (RegexUnion (RegexStar (RegexStar (RegexUnion (RegexUnion (RegexPlus (RegexStar (RegexUnion (RegexUnion (RegexUnion (RegexStar (RegexPlus (Str2Reg "BBBB"))) (RegexStar (RegexStar (Str2Reg "CCC")))) (RegexPlus (RegexPlus (RegexPlus (Str2Reg "DD"))))) (RegexPlus (RegexStar (RegexUnion (RegexStar (Str2Reg "EEEE")) (RegexPlus (Str2Reg "FFFF")))))))) (RegexPlus (RegexPlus (RegexPlus (RegexStar (RegexUnion (RegexUnion (RegexStar (Str2Reg "GGGGG")) (RegexUnion (Str2Reg "HHHH") (Str2Reg "IIIII"))) (RegexStar (RegexUnion (Str2Reg "JJJJJ") (Str2Reg "KKKKK"))))))))) (RegexPlus (RegexUnion (RegexPlus (RegexPlus (RegexPlus (RegexUnion (RegexUnion (RegexPlus (Str2Reg "LLLL")) (RegexStar (Str2Reg "MM"))) (RegexStar (RegexUnion (Str2Reg "NNNN") (Str2Reg "OOO"))))))) (RegexPlus (RegexStar (RegexPlus (RegexPlus (RegexPlus (RegexStar (Str2Reg "PPPP")))))))))))) (RegexStar (RegexUnion (RegexPlus (RegexStar (RegexStar (RegexStar (RegexPlus (RegexUnion (RegexStar (RegexUnion (RegexStar (Str2Reg "QQQQ")) (RegexUnion (Str2Reg "RR") (Str2Reg "SSSS")))) (RegexPlus (RegexPlus (RegexStar (Str2Reg "TT")))))))))) (RegexStar (RegexPlus (RegexStar (RegexStar (RegexStar (RegexStar (RegexStar (RegexPlus (RegexUnion (Str2Reg "UUU") (Str2Reg "VVVV")))))))))))))) (RegexStar (RegexUnion (RegexUnion (RegexStar (RegexUnion (RegexPlus (RegexUnion (RegexUnion (RegexStar (RegexStar (RegexUnion (RegexPlus (RegexStar (Str2Reg "WWW"))) (RegexStar (RegexUnion (Str2Reg "XXXXX") (Str2Reg "YY")))))) (RegexUnion (RegexStar (RegexStar (RegexUnion (RegexPlus (Str2Reg "ZZ")) (RegexUnion (Str2Reg "!!") (Str2Reg "\"\"\""))))) (RegexStar (RegexUnion (RegexUnion (RegexStar (Str2Reg "###")) (RegexStar (Str2Reg "$$$$"))) (RegexPlus (RegexStar (Str2Reg "%%%"))))))) (RegexPlus (RegexUnion (RegexUnion (RegexPlus (RegexPlus (RegexUnion (Str2Reg "&&") (Str2Reg "''")))) (RegexStar (RegexUnion (RegexPlus (Str2Reg "((((")) (RegexStar (Str2Reg ")))))"))))) (RegexUnion (RegexUnion (RegexPlus (RegexUnion (Str2Reg "**") (Str2Reg "+++++"))) (RegexUnion (RegexPlus (Str2Reg ",,,,")) (RegexStar (Str2Reg "----")))) (RegexPlus (RegexPlus (RegexPlus (Str2Reg "..."))))))))) (RegexStar (RegexStar (RegexUnion (RegexUnion (RegexUnion (RegexUnion (RegexUnion (RegexPlus (Str2Reg "//")) (RegexPlus (Str2Reg "::::"))) (RegexPlus (RegexStar (Str2Reg ";;;;;")))) (RegexUnion (RegexStar (RegexPlus (Str2Reg "<<"))) (RegexStar (RegexUnion (Str2Reg "=====") (Str2Reg ">>>>>"))))) (RegexStar (RegexPlus (RegexUnion (RegexUnion (Str2Reg "?????") (Str2Reg "@@")) (RegexPlus (Str2Reg "[[[")))))) (RegexPlus (RegexUnion (RegexStar (RegexPlus (RegexPlus (Str2Reg "\\\\\\\\\\")))) (RegexUnion (RegexStar (RegexStar (Str2Reg "]]]]]"))) (RegexUnion (RegexStar (Str2Reg "^^^^^")) (RegexUnion (Str2Reg "____") (Str2Reg "```"))))))))))) (RegexStar (RegexUnion (RegexPlus (RegexPlus (RegexUnion (RegexUnion (RegexUnion (RegexPlus (RegexStar (RegexUnion (Str2Reg "{{{") (Str2Reg "||")))) (RegexUnion (RegexUnion (RegexUnion (Str2Reg "}}}}") (Str2Reg "~~~~")) (RegexPlus (Str2Reg "000"))) (RegexUnion (RegexStar (Str2Reg "11111")) (RegexUnion (Str2Reg "22") (Str2Reg "3333"))))) (RegexPlus (RegexUnion (RegexUnion (RegexPlus (Str2Reg "4444")) (RegexStar (Str2Reg "55555"))) (RegexPlus (RegexPlus (Str2Reg "66")))))) (RegexPlus (RegexStar (RegexPlus (RegexStar (RegexUnion (Str2Reg "77") (Str2Reg "88888"))))))))) (RegexUnion (RegexPlus (RegexUnion (RegexPlus (RegexPlus (RegexUnion (RegexUnion (RegexUnion (Str2Reg "99") (Str2Reg "aaa")) (RegexStar (Str2Reg "bbbbb"))) (RegexUnion (RegexUnion (Str2Reg "ccc") (Str2Reg "ddddd")) (RegexPlus (Str2Reg "eee")))))) (RegexPlus (RegexPlus (RegexStar (RegexUnion (RegexPlus (Str2Reg "ffff")) (RegexUnion (Str2Reg "ggggg") (Str2Reg "hhhhh")))))))) (RegexStar (RegexUnion (RegexUnion (RegexUnion (RegexPlus (RegexStar (RegexStar (Str2Reg "ii")))) (RegexStar (RegexUnion (RegexStar (Str2Reg "jjj")) (RegexStar (Str2Reg "kkkkk"))))) (RegexPlus (RegexUnion (RegexPlus (RegexUnion (Str2Reg "lll") (Str2Reg "mmmmm"))) (RegexUnion (RegexUnion (Str2Reg "nn") (Str2Reg "oo")) (RegexUnion (Str2Reg "ppppp") (Str2Reg "qqqqq")))))) (RegexUnion (RegexStar (RegexUnion (RegexPlus (RegexStar (Str2Reg "rrr"))) (RegexUnion (RegexUnion (Str2Reg "ss") (Str2Reg "ttttt")) (RegexUnion (Str2Reg "uuuu") (Str2Reg "vvvv"))))) (RegexPlus (RegexStar (RegexPlus (RegexUnion (Str2Reg "www") (Str2Reg "xx")))))))))))) (RegexPlus (RegexUnion (RegexStar (RegexUnion (RegexUnion (RegexPlus (RegexStar (RegexPlus (RegexStar (RegexStar (RegexUnion (Str2Reg "yy") (Str2Reg "zzzz"))))))) (RegexUnion (RegexPlus (RegexPlus (RegexStar (RegexPlus (RegexUnion (Str2Reg "AA") (Str2Reg "BBBB")))))) (RegexUnion (RegexStar (RegexUnion (RegexUnion (RegexPlus (Str2Reg "CC")) (RegexUnion (Str2Reg "DDD") (Str2Reg "EEEE"))) (RegexPlus (RegexPlus (Str2Reg "FFF"))))) (RegexPlus (RegexPlus (RegexPlus (RegexStar (Str2Reg "GGGGG")))))))) (RegexStar (RegexStar (RegexPlus (RegexStar (RegexStar (RegexStar (RegexPlus (Str2Reg "HHHHH")))))))))) (RegexUnion (RegexUnion (RegexUnion (RegexUnion (RegexStar (RegexPlus (RegexPlus (RegexStar (RegexPlus (Str2Reg "IIIII")))))) (RegexPlus (RegexPlus (RegexStar (RegexStar (RegexStar (Str2Reg "JJJJJ"))))))) (RegexPlus (RegexPlus (RegexStar (RegexPlus (RegexUnion (RegexPlus (Str2Reg "KKKKK")) (RegexPlus (Str2Reg "LLL")))))))) (RegexUnion (RegexUnion (RegexPlus (RegexPlus (RegexStar (RegexUnion (RegexPlus (Str2Reg "MMM")) (RegexUnion (Str2Reg "NNNNN") (Str2Reg "OO")))))) (RegexPlus (RegexPlus (RegexUnion (RegexStar (RegexStar (Str2Reg "PPPPP"))) (RegexUnion (RegexStar (Str2Reg "QQ")) (RegexStar (Str2Reg "RRR"))))))) (RegexStar (RegexStar (RegexUnion (RegexPlus (RegexPlus (RegexUnion (Str2Reg "SS") (Str2Reg "TTTT")))) (RegexStar (RegexPlus (RegexStar (Str2Reg "UU"))))))))) (RegexPlus (RegexUnion (RegexPlus (RegexPlus (RegexPlus (RegexStar (RegexUnion (RegexPlus (Str2Reg "VVVV")) (RegexPlus (Str2Reg "WWWW"))))))) (RegexStar (RegexPlus (RegexPlus (RegexUnion (RegexPlus (RegexStar (Str2Reg "XX"))) (RegexStar (RegexStar (Str2Reg "YYYYY")))))))))))))))))))) (RegexStar (RegexPlus (RegexPlus (RegexUnion (RegexStar (RegexPlus (RegexUnion (RegexUnion (RegexUnion (RegexPlus (RegexUnion (RegexPlus (RegexPlus (RegexStar (RegexStar (RegexPlus (RegexStar (RegexUnion (RegexUnion (Str2Reg "0000") (Str2Reg "11111")) (RegexUnion (Str2Reg "22") (Str2Reg "33"))))))))) (RegexStar (RegexPlus (RegexStar (RegexPlus (RegexStar (RegexUnion (RegexStar (RegexPlus (Str2Reg "4444"))) (RegexStar (RegexPlus (Str2Reg "555"))))))))))) (RegexPlus (RegexStar (RegexPlus (RegexUnion (RegexStar (RegexUnion (RegexUnion (RegexPlus (RegexPlus (RegexStar (Str2Reg "666")))) (RegexUnion (RegexUnion (RegexStar (Str2Reg "77")) (RegexPlus (Str2Reg "88888"))) (RegexPlus (RegexUnion (Str2Reg "999") (Str2Reg "aaa"))))) (RegexPlus (RegexStar (RegexPlus (RegexUnion (Str2Reg "bbbb") (Str2Reg "ccccc"))))))) (RegexUnion (RegexUnion (RegexPlus (RegexUnion (RegexStar (RegexUnion (Str2Reg "dd") (Str2Reg "eeeee"))) (RegexStar (RegexStar (Str2Reg "ffff"))))) (RegexStar (RegexUnion (RegexStar (RegexPlus (Str2Reg "ggggg"))) (RegexPlus (RegexPlus (Str2Reg "hh")))))) (RegexPlus (RegexStar (RegexStar (RegexStar (RegexPlus (Str2Reg "ii")))))))))))) (RegexUnion (RegexUnion (RegexPlus (RegexStar (RegexStar (RegexStar (RegexStar (RegexUnion (RegexUnion (RegexPlus (RegexPlus (Str2Reg "jjj"))) (RegexStar (RegexPlus (Str2Reg "kk")))) (RegexStar (RegexUnion (RegexStar (Str2Reg "lllll")) (RegexUnion (Str2Reg "mmmmm") (Str2Reg "nnnn")))))))))) (RegexPlus (RegexPlus (RegexStar (RegexStar (RegexUnion (RegexStar (RegexPlus (RegexPlus (RegexStar (Str2Reg "ooo"))))) (RegexUnion (RegexStar (RegexUnion (RegexPlus (Str2Reg "ppp")) (RegexStar (Str2Reg "qq")))) (RegexPlus (RegexPlus (RegexPlus (Str2Reg "rrrrr"))))))))))) (RegexPlus (RegexUnion (RegexUnion (RegexUnion (RegexUnion (RegexStar (RegexStar (RegexPlus (RegexPlus (RegexUnion (Str2Reg "sssss") (Str2Reg "tttt")))))) (RegexStar (RegexStar (RegexStar (RegexUnion (RegexStar (Str2Reg "uuuuu")) (RegexStar (Str2Reg "vv"))))))) (RegexPlus (RegexPlus (RegexStar (RegexUnion (RegexPlus (RegexStar (Str2Reg "wwww"))) (RegexStar (RegexPlus (Str2Reg "xx")))))))) (RegexPlus (RegexUnion (RegexPlus (RegexUnion (RegexPlus (RegexPlus (RegexPlus (Str2Reg "yyyy")))) (RegexPlus (RegexUnion (RegexUnion (Str2Reg "zzz") (Str2Reg "AAAA")) (RegexStar (Str2Reg "BBB")))))) (RegexUnion (RegexPlus (RegexStar (RegexStar (RegexStar (Str2Reg "CC"))))) (RegexPlus (RegexUnion (RegexUnion (RegexPlus (Str2Reg "DDDDD")) (RegexUnion (Str2Reg "EEEE") (Str2Reg "FF"))) (RegexStar (RegexPlus (Str2Reg "GGGGG"))))))))) (RegexStar (RegexUnion (RegexPlus (RegexUnion (RegexPlus (RegexStar (RegexUnion (RegexPlus (Str2Reg "HHHHH")) (RegexUnion (Str2Reg "III") (Str2Reg "JJJ"))))) (RegexUnion (RegexStar (RegexUnion (RegexPlus (Str2Reg "KKK")) (RegexPlus (Str2Reg "LL")))) (RegexUnion (RegexPlus (RegexUnion (Str2Reg "MMMM") (Str2Reg "NN"))) (RegexPlus (RegexUnion (Str2Reg "OO") (Str2Reg "PPPPP"))))))) (RegexUnion (RegexUnion (RegexPlus (RegexStar (RegexUnion (RegexPlus (Str2Reg "QQ")) (RegexStar (Str2Reg "RRRRR"))))) (RegexPlus (RegexPlus (RegexPlus (RegexPlus (Str2Reg "SSSSS")))))) (RegexPlus (RegexStar (RegexStar (RegexUnion (RegexUnion (Str2Reg "TTTTT") (Str2Reg "UUUU")) (RegexPlus (Str2Reg "VVVVV"))))))))))))) (RegexUnion (RegexUnion (RegexPlus (RegexStar (RegexStar (RegexStar (RegexUnion (RegexUnion (RegexStar (RegexUnion (RegexPlus (RegexUnion (Str2Reg "WW") (Str2Reg "XXXX"))) (RegexStar (RegexStar (Str2Reg "YYYYY"))))) (RegexPlus (RegexStar (RegexStar (RegexStar (Str2Reg "ZZZZ")))))) (RegexUnion (RegexStar (RegexPlus (RegexPlus (RegexPlus (Str2Reg "!!!"))))) (RegexPlus (RegexStar (RegexStar (RegexUnion (Str2Reg "\"\"\"\"") (Str2Reg "####"))))))))))) (RegexPlus (RegexUnion (RegexPlus (RegexUnion (RegexPlus (RegexPlus (RegexUnion (RegexPlus (RegexUnion (RegexPlus (Str2Reg "$$$$")) (RegexUnion (Str2Reg "%%%%%") (Str2Reg "&&&&")))) (RegexStar (RegexStar (RegexUnion (Str2Reg "''''") (Str2Reg "(("))))))) (RegexPlus (RegexPlus (RegexStar (RegexPlus (RegexPlus (RegexUnion (Str2Reg ")))") (Str2Reg "****"))))))))) (RegexUnion (RegexUnion (RegexPlus (RegexPlus (RegexStar (RegexPlus (RegexUnion (RegexUnion (Str2Reg "+++++") (Str2Reg ",,")) (RegexStar (Str2Reg "-----"))))))) (RegexPlus (RegexUnion (RegexPlus (RegexUnion (RegexStar (RegexUnion (Str2Reg "...") (Str2Reg "///"))) (RegexPlus (RegexPlus (Str2Reg "::"))))) (RegexStar (RegexStar (RegexUnion (RegexPlus (Str2Reg ";;")) (RegexPlus (Str2Reg "<<")))))))) (RegexStar (RegexPlus (RegexStar (RegexUnion (RegexStar (RegexUnion (RegexUnion (Str2Reg "=====") (Str2Reg ">>>")) (RegexStar (Str2Reg "??")))) (RegexPlus (RegexUnion (RegexPlus (Str2Reg "@@@@@")) (RegexPlus (Str2Reg "[[[")))))))))))) (RegexUnion (RegexPlus (RegexUnion (RegexStar (RegexUnion (RegexPlus (RegexStar (RegexPlus (RegexUnion (RegexPlus (RegexUnion (Str2Reg "\\\\\\\\\\") (Str2Reg "]]]]"))) (RegexStar (RegexUnion (Str2Reg "^^") (Str2Reg "_____"))))))) (RegexUnion (RegexUnion (RegexUnion (RegexPlus (RegexUnion (RegexUnion (Str2Reg "``") (Str2Reg "{{{{")) (RegexStar (Str2Reg "|||||")))) (RegexUnion (RegexPlus (RegexStar (Str2Reg "}}"))) (RegexUnion (RegexUnion (Str2Reg "~~~~~") (Str2Reg "00")) (RegexUnion (Str2Reg "11111") (Str2Reg "222"))))) (RegexUnion (RegexStar (RegexStar (RegexStar (Str2Reg "33")))) (RegexStar (RegexPlus (RegexStar (Str2Reg "444")))))) (RegexUnion (RegexUnion (RegexPlus (RegexUnion (RegexPlus (Str2Reg "55555")) (RegexPlus (Str2Reg "66")))) (RegexStar (RegexPlus (RegexPlus (Str2Reg "7777"))))) (RegexUnion (RegexStar (RegexStar (RegexPlus (Str2Reg "888")))) (RegexUnion (RegexPlus (RegexPlus (Str2Reg "99999"))) (RegexUnion (RegexPlus (Str2Reg "aaaa")) (RegexStar (Str2Reg "bbb"))))))))) (RegexPlus (RegexPlus (RegexUnion (RegexStar (RegexUnion (RegexPlus (RegexPlus (RegexUnion (Str2Reg "ccc") (Str2Reg "ddd")))) (RegexUnion (RegexPlus (RegexStar (Str2Reg "eeeee"))) (RegexStar (RegexUnion (Str2Reg "fffff") (Str2Reg "ggggg")))))) (RegexPlus (RegexStar (RegexStar (RegexPlus (RegexPlus (Str2Reg "hhhh"))))))))))) (RegexPlus (RegexStar (RegexUnion (RegexUnion (RegexPlus (RegexPlus (RegexStar (RegexUnion (RegexPlus (RegexUnion (Str2Reg "iiii") (Str2Reg "jjjj"))) (RegexPlus (RegexPlus (Str2Reg "kkk"))))))) (RegexStar (RegexPlus (RegexUnion (RegexUnion (RegexPlus (RegexPlus (Str2Reg "llll"))) (RegexPlus (RegexUnion (Str2Reg "mmmmm") (Str2Reg "nn")))) (RegexStar (RegexStar (RegexStar (Str2Reg "ooooo")))))))) (RegexUnion (RegexUnion (RegexStar (RegexPlus (RegexStar (RegexUnion (RegexUnion (Str2Reg "ppppp") (Str2Reg "qq")) (RegexUnion (Str2Reg "rrrr") (Str2Reg "sssss")))))) (RegexStar (RegexPlus (RegexUnion (RegexStar (RegexPlus (Str2Reg "ttttt"))) (RegexPlus (RegexUnion (Str2Reg "uuuu") (Str2Reg "vv"))))))) (RegexUnion (RegexStar (RegexUnion (RegexStar (RegexPlus (RegexStar (Str2Reg "ww")))) (RegexUnion (RegexStar (RegexPlus (Str2Reg "xx"))) (RegexStar (RegexStar (Str2Reg "yyyyy")))))) (RegexPlus (RegexUnion (RegexUnion (RegexUnion (RegexUnion (Str2Reg "zzz") (Str2Reg "AAAA")) (RegexUnion (Str2Reg "BBB") (Str2Reg "CCC"))) (RegexPlus (RegexPlus (Str2Reg "DDDDD")))) (RegexUnion (RegexUnion (RegexPlus (Str2Reg "EEEEE")) (RegexUnion (Str2Reg "FFFF") (Str2Reg "GGG"))) (RegexUnion (RegexUnion (Str2Reg "HHH") (Str2Reg "IIII")) (RegexPlus (Str2Reg "JJ")))))))))))))))) (RegexUnion (RegexUnion (RegexUnion (RegexUnion (RegexPlus (RegexUnion (RegexStar (RegexPlus (RegexPlus (RegexPlus (RegexPlus (RegexUnion (RegexPlus (RegexStar (RegexUnion (Str2Reg "KKKK") (Str2Reg "LLLL")))) (RegexPlus (RegexStar (RegexUnion (Str2Reg "MMM") (Str2Reg "NNNN")))))))))) (RegexStar (RegexStar (RegexStar (RegexPlus (RegexUnion (RegexStar (RegexPlus (RegexStar (RegexStar (Str2Reg "OOOO"))))) (RegexStar (RegexStar (RegexUnion (RegexUnion (Str2Reg "PPP") (Str2Reg "QQQQQ")) (RegexUnion (Str2Reg "RRRR") (Str2Reg "SSSS")))))))))))) (RegexStar (RegexUnion (RegexPlus (RegexStar (RegexStar (RegexPlus (RegexStar (RegexPlus (RegexPlus (RegexStar (RegexStar (Str2Reg "TTTT")))))))))) (RegexStar (RegexUnion (RegexStar (RegexUnion (RegexPlus (RegexUnion (RegexPlus (RegexUnion (RegexUnion (Str2Reg "UU") (Str2Reg "VVVV")) (RegexPlus (Str2Reg "WWWWW")))) (RegexPlus (RegexUnion (RegexPlus (Str2Reg "XX")) (RegexUnion (Str2Reg "YY") (Str2Reg "ZZ")))))) (RegexPlus (RegexUnion (RegexStar (RegexStar (RegexPlus (Str2Reg "!!!")))) (RegexUnion (RegexUnion (RegexStar (Str2Reg "\"\"")) (RegexPlus (Str2Reg "##"))) (RegexUnion (RegexPlus (Str2Reg "$$$$")) (RegexStar (Str2Reg "%%%%")))))))) (RegexUnion (RegexUnion (RegexUnion (RegexPlus (RegexUnion (RegexStar (RegexPlus (Str2Reg "&&&&"))) (RegexUnion (RegexPlus (Str2Reg "'''")) (RegexStar (Str2Reg "(((("))))) (RegexStar (RegexStar (RegexStar (RegexUnion (Str2Reg "))))") (Str2Reg "***")))))) (RegexUnion (RegexStar (RegexUnion (RegexPlus (RegexPlus (Str2Reg "+++++"))) (RegexUnion (RegexStar (Str2Reg ",,,,")) (RegexStar (Str2Reg "-----"))))) (RegexStar (RegexStar (RegexUnion (RegexUnion (Str2Reg "..") (Str2Reg "///")) (RegexPlus (Str2Reg ":::::"))))))) (RegexStar (RegexPlus (RegexUnion (RegexPlus (RegexUnion (RegexStar (Str2Reg ";;;;;")) (RegexStar (Str2Reg "<<")))) (RegexUnion (RegexStar (RegexUnion (Str2Reg "====") (Str2Reg ">>"))) (RegexStar (RegexPlus (Str2Reg "????"))))))))))))) (RegexPlus (RegexPlus (RegexUnion (RegexPlus (RegexPlus (RegexStar (RegexStar (RegexPlus (RegexPlus (RegexStar (RegexPlus (RegexStar (Str2Reg "@@@")))))))))) (RegexUnion (RegexPlus (RegexUnion (RegexStar (RegexUnion (RegexPlus (RegexPlus (RegexStar (RegexStar (Str2Reg "[[[["))))) (RegexUnion (RegexPlus (RegexUnion (RegexUnion (Str2Reg "\\\\") (Str2Reg "]]]]]")) (RegexPlus (Str2Reg "^^^")))) (RegexUnion (RegexPlus (RegexStar (Str2Reg "___"))) (RegexStar (RegexStar (Str2Reg "`````"))))))) (RegexPlus (RegexStar (RegexUnion (RegexStar (RegexPlus (RegexPlus (Str2Reg "{{")))) (RegexUnion (RegexPlus (RegexPlus (Str2Reg "|||||"))) (RegexPlus (RegexStar (Str2Reg "}}}}"))))))))) (RegexStar (RegexUnion (RegexUnion (RegexStar (RegexStar (RegexStar (RegexUnion (RegexPlus (Str2Reg "~~~~~")) (RegexUnion (Str2Reg "00000") (Str2Reg "1111")))))) (RegexStar (RegexStar (RegexUnion (RegexPlus (RegexPlus (Str2Reg "2222"))) (RegexPlus (RegexUnion (Str2Reg "33") (Str2Reg "444"))))))) (RegexStar (RegexStar (RegexPlus (RegexStar (RegexStar (RegexStar (Str2Reg "55")))))))))))))) (RegexPlus (RegexStar (RegexPlus (RegexPlus (RegexStar (RegexPlus (RegexUnion (RegexStar (RegexStar (RegexStar (RegexPlus (RegexStar (RegexStar (Str2Reg "66666"))))))) (RegexUnion (RegexStar (RegexUnion (RegexUnion (RegexUnion (RegexStar (Str2Reg "77777")) (RegexStar (Str2Reg "888"))) (RegexPlus (RegexStar (Str2Reg "99999")))) (RegexPlus (RegexUnion (RegexUnion (Str2Reg "aaaaa") (Str2Reg "bbbb")) (RegexPlus (Str2Reg "ccccc")))))) (RegexStar (RegexUnion (RegexPlus (RegexPlus (RegexStar (Str2Reg "dd")))) (RegexUnion (RegexUnion (RegexUnion (Str2Reg "eee") (Str2Reg "fff")) (RegexStar (Str2Reg "ggg"))) (RegexPlus (RegexStar (Str2Reg "hhh"))))))))))))))) (RegexPlus (RegexStar (RegexPlus (RegexStar (RegexUnion (RegexStar (RegexPlus (RegexUnion (RegexPlus (RegexStar (RegexStar (RegexUnion (RegexPlus (RegexPlus (Str2Reg "iiii"))) (RegexStar (RegexStar (Str2Reg "jj"))))))) (RegexUnion (RegexStar (RegexPlus (RegexStar (RegexStar (RegexUnion (Str2Reg "kkk") (Str2Reg "lllll")))))) (RegexUnion (RegexStar (RegexStar (RegexUnion (RegexPlus (Str2Reg "mm")) (RegexPlus (Str2Reg "nnnn"))))) (RegexStar (RegexStar (RegexStar (RegexPlus (Str2Reg "ooooo")))))))))) (RegexUnion (RegexPlus (RegexUnion (RegexPlus (RegexPlus (RegexPlus (RegexStar (RegexStar (RegexPlus (Str2Reg "pppp"))))))) (RegexStar (RegexPlus (RegexPlus (RegexStar (RegexPlus (RegexUnion (Str2Reg "qqqq") (Str2Reg "rrrrr"))))))))) (RegexStar (RegexUnion (RegexPlus (RegexUnion (RegexPlus (RegexUnion (RegexStar (RegexPlus (Str2Reg "ss"))) (RegexStar (RegexUnion (Str2Reg "ttt") (Str2Reg "uu"))))) (RegexStar (RegexUnion (RegexStar (RegexStar (Str2Reg "vvvvv"))) (RegexPlus (RegexPlus (Str2Reg "www"))))))) (RegexPlus (RegexPlus (RegexStar (RegexStar (RegexUnion (RegexUnion (Str2Reg "xxxxx") (Str2Reg "yyyyy")) (RegexUnion (Str2Reg "zzz") (Str2Reg "AAAA")))))))))))))))))))))))
(assert (<= 15 (Length var0)))
(check-sat)